c 9th DIMACS Implementation Challenge: Shortest Paths
c http://www.dis.uniroma1.it/~challenge9
c TIGER/Line graph USA-road-d.NY
c
p sp 6 6
c graph contains 6 nodes and 6 arcs
c
a 1 2 803
a 2 1 803
a 2 3 158
a 3 4 158
a 2 4 774
a 2 5 774